networks/zoo_50_361/zoo_50_361.sol
<?xml version = "1.0" encoding="UTF-8" standalone="yes"?>
<CPLEXSolution version="1.2">
 <header
   problemName="networks/zoo_50_361/zoo_50_361.lp"
   solutionName="incumbent"
   solutionIndex="-1"
   objectiveValue="28"
   solutionTypeValue="3"
   solutionTypeString="primal"
   solutionStatusValue="101"
   solutionStatusString="integer optimal solution"
   solutionMethodString="mip"
   primalFeasible="1"
   dualFeasible="1"
   MIPNodes="0"
   MIPIterations="5551"
   writeLevel="3"/>
 <quality
   epInt="1.0000000000000001e-05"
   epRHS="9.9999999999999995e-07"
   maxIntInfeas="0"
   maxPrimalInfeas="0"
   maxX="4"
   maxSlack="10"/>
 <variables>
  <variable name="Y(4,4)" index="153" value="1"/>
  <variable name="Y(13,9)" index="608" value="1"/>
  <variable name="Y(15,11)" index="710" value="1"/>
  <variable name="Y(18,14)" index="863" value="1"/>
  <variable name="Y(19,15)" index="914" value="1"/>
  <variable name="Y(21,17)" index="1016" value="1"/>
  <variable name="Y(23,19)" index="1118" value="1"/>
  <variable name="Y(76,25)" index="3774" value="1"/>
  <variable name="Y(85,10)" index="4209" value="1"/>
  <variable name="Y(87,12)" index="4311" value="1"/>
  <variable name="Y(152,7)" index="7556" value="1"/>
  <variable name="Y(159,3)" index="7902" value="1"/>
  <variable name="Y(170,21)" index="8470" value="1"/>
  <variable name="Y(174,12)" index="8661" value="1"/>
  <variable name="Y(185,2)" index="9201" value="1"/>
  <variable name="Y(192,1)" index="9550" value="1"/>
  <variable name="Y(230,20)" index="11469" value="1"/>
  <variable name="Y(239,4)" index="11903" value="1"/>
  <variable name="Y(253,6)" index="12605" value="1"/>
  <variable name="Y(263,8)" index="13107" value="1"/>
  <variable name="Y(265,24)" index="13223" value="1"/>
  <variable name="Y(273,16)" index="13615" value="1"/>
  <variable name="Y(282,5)" index="14054" value="1"/>
  <variable name="Y(291,23)" index="14522" value="1"/>
  <variable name="Y(296,22)" index="14771" value="1"/>
  <variable name="Y(309,13)" index="15412" value="1"/>
  <variable name="Y(318,22)" index="15871" value="1"/>
  <variable name="Y(333,18)" index="16617" value="1"/>
  <variable name="X(1,4,4)" index="18053" value="1"/>
  <variable name="X(1,26,192)" index="18602" value="1"/>
  <variable name="X(2,3,18)" index="18789" value="1"/>
  <variable name="X(2,4,192)" index="19324" value="1"/>
  <variable name="X(2,7,170)" index="19663" value="1"/>
  <variable name="X(2,11,15)" index="19869" value="1"/>
  <variable name="X(2,12,87)" index="20302" value="1"/>
  <variable name="X(2,15,19)" index="20595" value="1"/>
  <variable name="X(2,22,318)" index="21255" value="1"/>
  <variable name="X(2,27,185)" index="21483" value="1"/>
  <variable name="X(3,2,185)" index="21844" value="1"/>
  <variable name="X(3,4,239)" index="22259" value="1"/>
  <variable name="X(3,14,18)" index="22399" value="1"/>
  <variable name="X(3,17,21)" index="22763" value="1"/>
  <variable name="X(3,28,159)" index="23262" value="1"/>
  <variable name="X(4,1,192)" index="23656" value="1"/>
  <variable name="X(4,2,4)" index="23829" value="1"/>
  <variable name="X(4,3,159)" index="24345" value="1"/>
  <variable name="X(4,10,85)" index="24632" value="1"/>
  <variable name="X(4,29,239)" index="25147" value="1"/>
  <variable name="X(5,25,76)" index="25345" value="1"/>
  <variable name="X(5,30,282)" index="25912" value="1"/>
  <variable name="X(6,7,152)" index="26143" value="1"/>
  <variable name="X(6,9,13)" index="26365" value="1"/>
  <variable name="X(6,21,170)" index="26883" value="1"/>
  <variable name="X(6,25,282)" index="27356" value="1"/>
  <variable name="X(6,31,253)" index="27688" value="1"/>
  <variable name="X(7,2,318)" index="28114" value="1"/>
  <variable name="X(7,6,170)" index="28327" value="1"/>
  <variable name="X(7,8,263)" index="28781" value="1"/>
  <variable name="X(7,25,23)" index="28902" value="1"/>
  <variable name="X(7,32,152)" index="29392" value="1"/>
  <variable name="X(8,7,318)" index="29919" value="1"/>
  <variable name="X(8,23,291)" index="30253" value="1"/>
  <variable name="X(8,33,263)" index="30586" value="1"/>
  <variable name="X(9,6,152)" index="30836" value="1"/>
  <variable name="X(9,34,13)" index="31058" value="1"/>
  <variable name="X(10,4,159)" index="31565" value="1"/>
  <variable name="X(10,35,85)" index="31852" value="1"/>
  <variable name="X(11,2,170)" index="32298" value="1"/>
  <variable name="X(11,36,15)" index="32504" value="1"/>
  <variable name="X(12,2,174)" index="33024" value="1"/>
  <variable name="X(12,37,87)" index="33298" value="1"/>
  <variable name="X(13,17,185)" index="33757" value="1"/>
  <variable name="X(13,38,309)" index="34242" value="1"/>
  <variable name="X(14,39,18)" index="34312" value="1"/>
  <variable name="X(15,2,192)" index="34847" value="1"/>
  <variable name="X(15,40,19)" index="35035" value="1"/>
  <variable name="X(16,25,230)" index="35607" value="1"/>
  <variable name="X(16,41,273)" index="36011" value="1"/>
  <variable name="X(17,3,185)" index="36284" value="1"/>
  <variable name="X(17,13,309)" index="36769" value="1"/>
  <variable name="X(17,42,21)" index="36842" value="1"/>
  <variable name="X(18,25,253)" index="37435" value="1"/>
  <variable name="X(18,43,333)" index="37876" value="1"/>
  <variable name="X(19,25,265)" index="38169" value="1"/>
  <variable name="X(19,44,23)" index="38288" value="1"/>
  <variable name="X(20,25,273)" index="38899" value="1"/>
  <variable name="X(20,45,230)" index="39217" value="1"/>
  <variable name="X(21,6,282)" index="39630" value="1"/>
  <variable name="X(21,46,170)" index="39879" value="1"/>
  <variable name="X(22,2,296)" index="40366" value="1"/>
  <variable name="X(22,47,318)" index="40749" value="1"/>
  <variable name="X(23,8,318)" index="41110" value="1"/>
  <variable name="X(23,48,291)" index="41444" value="1"/>
  <variable name="X(24,25,333)" index="41847" value="1"/>
  <variable name="X(24,49,265)" index="42140" value="1"/>
  <variable name="X(25,5,282)" index="42518" value="1"/>
  <variable name="X(25,6,253)" index="42850" value="1"/>
  <variable name="X(25,7,263)" index="43221" value="1"/>
  <variable name="X(25,16,273)" index="43592" value="1"/>
  <variable name="X(25,18,333)" index="44013" value="1"/>
  <variable name="X(25,19,23)" index="44064" value="1"/>
  <variable name="X(25,20,230)" index="44632" value="1"/>
  <variable name="X(25,24,265)" index="45028" value="1"/>
  <variable name="X(25,50,76)" index="45200" value="1"/>
  <variable name="C(4,4)" index="45501" value="1"/>
  <variable name="C(13,9)" index="45533" value="1"/>
  <variable name="C(15,11)" index="45538" value="1"/>
  <variable name="C(18,3)" index="45546" value="1"/>
  <variable name="C(18,14)" index="45547" value="2"/>
  <variable name="C(19,15)" index="45549" value="1"/>
  <variable name="C(21,17)" index="45556" value="1"/>
  <variable name="C(23,25)" index="45563" value="1"/>
  <variable name="C(23,19)" index="45564" value="2"/>
  <variable name="C(76,25)" index="45766" value="1"/>
  <variable name="C(85,10)" index="45797" value="1"/>
  <variable name="C(87,12)" index="45805" value="1"/>
  <variable name="C(152,6)" index="46037" value="1"/>
  <variable name="C(152,7)" index="46038" value="1.9999999999999998"/>
  <variable name="C(159,4)" index="46063" value="1"/>
  <variable name="C(159,3)" index="46064" value="2"/>
  <variable name="C(170,2)" index="46108" value="1"/>
  <variable name="C(170,7)" index="46109" value="2"/>
  <variable name="C(170,6)" index="46110" value="3"/>
  <variable name="C(170,21)" index="46111" value="4"/>
  <variable name="C(185,17)" index="46172" value="1"/>
  <variable name="C(185,3)" index="46173" value="2"/>
  <variable name="C(185,2)" index="46174" value="3"/>
  <variable name="C(192,15)" index="46210" value="1"/>
  <variable name="C(192,2)" index="46211" value="2"/>
  <variable name="C(192,4)" index="46212" value="3"/>
  <variable name="C(192,1)" index="46213" value="4"/>
  <variable name="C(230,25)" index="46373" value="1"/>
  <variable name="C(230,20)" index="46374" value="2"/>
  <variable name="C(239,4)" index="46405" value="1"/>
  <variable name="C(253,25)" index="46474" value="1"/>
  <variable name="C(253,6)" index="46475" value="2"/>
  <variable name="C(263,7)" index="46513" value="1"/>
  <variable name="C(263,8)" index="46514" value="2"/>
  <variable name="C(265,25)" index="46521" value="1"/>
  <variable name="C(265,24)" index="46522" value="2"/>
  <variable name="C(273,25)" index="46548" value="1"/>
  <variable name="C(273,16)" index="46549" value="2"/>
  <variable name="C(282,6)" index="46585" value="1"/>
  <variable name="C(282,25)" index="46586" value="2"/>
  <variable name="C(282,5)" index="46587" value="3"/>
  <variable name="C(291,23)" index="46625" value="1"/>
  <variable name="C(309,13)" index="46704" value="1"/>
  <variable name="C(318,8)" index="46748" value="1"/>
  <variable name="C(318,7)" index="46749" value="2"/>
  <variable name="C(318,2)" index="46750" value="3"/>
  <variable name="C(318,22)" index="46751" value="4"/>
  <variable name="C(333,25)" index="46815" value="1"/>
  <variable name="C(333,18)" index="46816" value="2"/>
 </variables>
</CPLEXSolution>
